HUN,8,6,872
2,19,5,51,4,96,0,76,1,71,3,52
5,31,3,90,1,49,2,100,0,9,4,81
0,92,3,24,4,59,2,32,1,64,5,11
3,77,1,82,4,98,0,30,5,89,2,17
2,41,4,7,1,30,3,27,5,32,0,21
2,42,3,6,0,27,1,33,4,31,5,36
1,10,5,19,0,77,4,20,2,13,3,98
3,63,4,53,2,90,5,91,1,46,0,36
